c Reduced graph for GEOM60_1 generated by Cyril Grelier
p edge 50 155
e 1 2
e 1 3
e 1 8
e 1 9
e 1 26
e 1 37
e 1 40
e 1 45
e 1 48
e 2 3
e 2 7
e 2 26
e 2 29
e 2 47
e 2 48
e 3 8
e 3 37
e 3 39
e 3 45
e 4 14
e 4 17
e 4 18
e 4 19
e 4 34
e 4 49
e 5 11
e 5 23
e 5 24
e 5 31
e 5 35
e 5 42
e 6 13
e 6 15
e 6 27
e 6 39
e 6 46
e 7 19
e 7 29
e 7 48
e 8 9
e 8 37
e 8 39
e 8 40
e 8 44
e 8 45
e 8 46
e 8 50
e 9 26
e 9 37
e 9 39
e 9 40
e 9 44
e 9 45
e 9 50
e 10 20
e 10 21
e 10 25
e 10 26
e 10 30
e 10 38
e 10 41
e 10 47
e 11 23
e 11 31
e 11 35
e 11 36
e 11 42
e 12 13
e 12 15
e 12 22
e 12 28
e 13 15
e 13 22
e 13 27
e 13 28
e 13 39
e 13 46
e 14 18
e 14 24
e 14 34
e 14 43
e 14 49
e 15 22
e 15 27
e 16 18
e 16 19
e 16 32
e 16 43
e 17 33
e 17 34
e 18 19
e 18 32
e 18 34
e 18 43
e 18 49
e 19 29
e 19 32
e 19 34
e 20 21
e 20 30
e 20 38
e 20 41
e 20 47
e 21 30
e 21 38
e 21 41
e 22 27
e 22 28
e 22 46
e 22 50
e 23 24
e 23 31
e 23 35
e 23 36
e 23 42
e 24 34
e 24 49
e 25 26
e 25 47
e 25 48
e 26 37
e 26 47
e 26 48
e 27 39
e 27 46
e 28 44
e 28 46
e 28 50
e 29 47
e 29 48
e 30 38
e 30 41
e 31 35
e 31 42
e 32 43
e 33 35
e 33 36
e 34 49
e 35 36
e 35 42
e 36 42
e 37 39
e 37 40
e 37 45
e 38 41
e 39 45
e 39 46
e 40 44
e 40 45
e 40 50
e 41 47
e 43 49
e 44 50
e 45 46
e 47 48
